20
20
480
471
454
411
370
364
357
355
307
293
270
257
191
187
160
152
90
77
58
14
72	472
206	606
270	670
288	688
302	702
424	824
761	1161
852	1252
915	1315
978	1378
110	510
191	591
252	652
563	963
604	1004
635	1035
660	1060
722	1122
867	1267
982	1382
